Eu1 Ti1 O3
1.0
   3.9891678099360259    0.0000000000000000    0.0000000000000000
   0.0000000000000000    3.9891678099360259    0.0000000000000000
   0.0000000000000000    0.0000000000000000    3.9891678099360259
Eu Ti O
1 1 3
direct
   0.0000000000000000    0.0000000000000000    0.0000000000000000 Eu
   0.5000000000000000    0.5000000000000000    0.5000000000000000 Ti
   0.0000000000000000    0.5000000000000000    0.5000000000000000 O
   0.5000000000000000    0.0000000000000000    0.5000000000000000 O
   0.5000000000000000    0.5000000000000000    0.0000000000000000 O
